p cnf 150 210
114 149 103 0
35 -69 46 0
-92 108 22 0
142 113 122 0
-24 136 -45 0
-19 -61 -139 0
-37 65 -43 0
-90 64 -87 0
49 -45 -67 0
-99 -61 -30 0
24 115 45 0
-4 -140 96 0
28 145 -80 0
-146 -110 -129 0
-29 -45 -26 0
-88 -57 -11 0
-148 -149 69 0
-45 -34 -22 0
-128 85 -136 0
-142 97 131 0
-122 -76 -12 0
-131 127 90 0
-33 -20 147 0
-102 -144 -65 0
-150 38 -141 0
35 -96 149 0
-68 -43 -5 0
112 144 76 0
-8 -51 -60 0
-84 133 -70 0
4 -44 -86 0
-102 -108 69 0
-51 105 -15 0
-83 136 103 0
-118 25 96 0
-144 26 58 0
-134 -105 -39 0
-53 143 -10 0
-23 5 -11 0
80 -57 -60 0
-123 10 -138 0
-23 -134 96 0
-139 -39 4 0
-26 125 60 0
-10 38 64 0
118 34 51 0
-135 -150 29 0
13 -120 -61 0
-100 109 65 0
63 -47 -102 0
134 -3 149 0
-147 116 -12 0
47 -138 58 0
-110 -18 -91 0
-44 106 -124 0
-70 -29 -88 0
97 22 -110 0
32 -33 -122 0
-15 67 -21 0
16 -71 -65 0
-88 107 -29 0
150 -134 132 0
141 9 42 0
-5 -10 -133 0
144 -65 31 0
115 38 -88 0
21 26 98 0
-48 -140 119 0
-56 -10 -80 0
-40 -103 73 0
-135 -107 -83 0
50 -119 92 0
122 -123 46 0
-38 108 -42 0
124 -85 -20 0
-67 24 -142 0
39 -22 -118 0
-73 -149 139 0
7 9 -31 0
87 -51 -30 0
42 92 -130 0
-105 75 37 0
8 -55 -34 0
136 5 36 0
-94 -48 -12 0
-20 -107 22 0
-15 -26 25 0
-80 -8 -77 0
57 147 -74 0
53 -129 148 0
-75 7 -105 0
42 -68 128 0
-66 85 28 0
-122 -83 -1 0
-123 -79 -77 0
-77 21 -59 0
-51 52 102 0
-3 -111 -21 0
-41 32 107 0
-105 60 5 0
-145 -15 60 0
119 128 47 0
11 62 22 0
-53 88 43 0
-27 74 -124 0
-81 -1 -58 0
90 103 -125 0
14 121 31 0
106 -138 23 0
117 -6 -81 0
-96 122 59 0
-43 54 133 0
125 -8 95 0
72 135 -85 0
4 25 -97 0
-4 109 -78 0
-80 103 10 0
9 -38 46 0
-73 -68 147 0
-102 -45 -78 0
11 19 148 0
-117 -137 16 0
-22 26 95 0
-107 94 -144 0
44 -74 -41 0
111 -114 50 0
-123 -90 60 0
-37 76 -146 0
-30 39 -134 0
76 -123 -5 0
-5 -38 95 0
-6 15 112 0
46 137 -38 0
-74 73 70 0
-31 109 -132 0
-76 -47 99 0
-132 -9 -104 0
-24 43 140 0
-57 13 -21 0
6 70 -34 0
108 -118 113 0
-136 105 61 0
-88 -10 -37 0
-84 56 150 0
-45 -55 -136 0
46 126 -102 0
93 67 149 0
141 85 144 0
-44 149 -53 0
-92 36 127 0
x -6 7 -8 10 -13 15 -16 -18 19 23 24 -26 27 29 -31 -32 33 35 36 39 40 -43 -44 45 46 49 51 52 55 -59 60 -63 -64 -65 66 69 -81 82 -84 89 -92 -93 98 101 -109 110 112 113 115 -116 118 120 123 124 -127 -130 131 132 -135 136 -138 139 -141 142 144 -147 149 0
x -1 -5 7 -9 -10 -13 -15 -16 18 -19 20 23 25 -26 -28 -29 -30 -31 -33 34 35 37 -39 -41 -42 44 -46 47 50 -52 -53 54 56 57 59 -60 -61 -66 69 -70 72 74 75 -77 78 -80 81 -86 -87 88 90 -91 -93 -94 95 102 103 104 -106 -108 -115 118 -119 -120 -121 122 123 124 -125 126 127 -131 -134 135 136 -139 -140 141 142 143 -146 147 -148 -150 0
x -3 7 11 13 -14 17 -18 21 -24 -25 -26 -27 28 -29 -31 34 -36 37 39 -42 46 -47 48 49 51 53 54 56 58 59 61 64 -65 67 -69 70 71 -73 74 76 -77 79 -81 -83 -86 87 -89 -90 100 -101 105 107 -111 -114 116 -117 118 119 -121 -122 -124 -126 127 133 -135 -136 -137 138 142 -144 -146 -147 148 149 0
x -4 -5 -6 8 13 -14 -16 18 19 23 -26 -27 28 -31 34 -51 57 -58 59 60 -62 -64 65 -66 67 -68 69 71 -72 -73 74 -76 77 -78 79 -83 -84 85 88 -89 90 -91 95 -96 97 -102 -104 106 -107 -110 111 112 -115 116 120 -124 125 -126 -130 -132 136 137 -141 145 -146 147 -148 149 0
x 1 2 -4 5 -7 9 10 11 -12 -13 15 17 22 24 25 -28 -30 32 -33 -34 35 37 -40 41 -44 -46 50 54 55 -56 -57 58 -61 -62 65 -67 72 76 77 78 -81 -82 -86 87 88 -95 96 97 -99 -101 105 -106 -107 -108 110 -112 113 117 118 119 124 -126 -128 -129 -132 133 -134 138 140 -141 142 143 147 148 0
x 1 -3 4 5 -6 7 -8 -10 -11 -12 -13 -14 17 -18 -19 21 22 23 24 -25 26 27 28 29 30 -31 -33 -34 -35 -36 38 39 41 43 -46 -48 -50 54 -56 61 -62 67 68 -70 72 -74 75 77 79 80 82 83 -84 87 97 98 99 102 -104 -105 106 109 111 -112 113 -115 116 123 -127 128 131 133 134 -135 138 139 140 -146 0
x -1 -6 7 9 11 -12 13 14 -15 -16 -17 -19 20 22 23 -24 25 26 -28 30 -31 -33 -35 37 -39 46 48 52 53 58 61 62 -63 -68 69 70 71 -72 -77 79 -83 86 -87 88 -90 91 92 -93 -95 96 97 -98 -100 -102 -105 106 -107 -109 111 112 113 117 120 -121 123 -125 -127 128 130 -133 -140 -142 145 -147 148 0
x 3 5 7 -8 9 10 11 -12 -16 -17 18 20 -21 24 25 28 29 -30 35 -36 -37 38 39 41 48 51 -53 -57 59 -61 62 -63 -64 65 -66 -68 69 -72 74 -76 -77 78 -82 84 -85 -89 91 92 94 -95 -96 97 102 -103 104 -105 -106 -108 -110 -111 112 114 115 -119 -122 123 -125 127 -128 129 -133 -134 -135 -136 -140 141 146 -147 -148 -150 0
x 1 2 3 -4 6 7 9 -11 16 -18 -19 21 -22 -23 -26 30 32 33 -38 -39 41 -44 47 -49 50 -51 -55 58 62 -63 65 67 68 -71 -73 -77 -79 81 83 -84 -85 86 87 -89 -90 -95 103 105 108 109 -110 -111 112 113 114 -116 -121 123 -127 -128 132 -134 -137 -138 139 -142 -143 144 -145 146 148 -149 0
x 3 -6 8 -9 -11 -17 20 24 -26 -32 33 -35 -38 -40 -41 42 45 -47 48 -50 52 -53 56 57 -58 62 64 -66 -68 69 73 -80 -81 -82 83 -85 -86 -87 94 -96 98 100 -101 -102 -105 107 110 111 112 115 -118 -119 120 -122 124 126 129 130 134 -135 -136 142 -143 144 147 -149 150 0
x 1 2 3 4 -5 -7 -8 11 -15 -16 -18 -19 -20 24 25 -27 -28 -29 -30 -31 -32 -33 35 -36 -38 40 41 -43 44 45 47 48 49 50 52 -53 55 -57 59 60 -61 66 71 -72 -74 76 -78 80 -81 -83 85 86 -87 88 -89 90 92 93 95 97 -98 101 -104 109 110 111 113 -115 -118 119 121 122 -123 125 126 -127 129 130 -131 136 137 139 -140 142 144 146 -147 0
x -2 5 -7 -9 -10 -11 -12 15 -17 -18 23 -26 28 -35 37 -38 -40 44 -46 47 -48 -49 52 53 -54 56 57 -58 -59 60 62 63 -65 66 -67 68 -70 76 77 -78 79 81 -83 -84 -85 -86 89 -91 -92 94 102 -103 -104 -105 -107 -109 -112 113 -117 118 -120 121 -122 -123 -124 130 -132 -133 137 138 139 141 142 143 144 145 -146 0
x 3 -4 6 -7 11 12 14 -19 20 24 -28 32 34 43 -46 -47 51 -52 56 -59 -61 -62 69 -71 73 82 -84 85 -93 -95 96 -101 102 104 105 -106 -108 111 114 -115 118 119 -121 -123 124 -125 126 128 129 133 135 138 -139 140 -144 -145 -146 -147 -148 -149 0
x 1 -7 8 -9 -10 15 17 -20 21 22 -23 24 27 28 -32 -34 -36 38 39 -40 41 -42 -43 47 -50 51 -53 -61 -64 65 -66 -70 -71 72 -73 -76 77 -78 79 -80 -81 -82 -83 84 87 88 89 -90 -92 93 -97 -100 -102 -105 106 -108 110 111 112 -115 -117 118 119 120 -123 124 -125 129 -132 133 134 -138 141 -142 -145 146 147 148 -149 -150 0
x -1 -4 5 7 -9 -10 -13 15 -16 20 21 -23 24 -27 28 29 -30 -33 34 38 40 41 43 44 47 -48 -49 -50 -55 -58 -61 -66 69 70 -72 -77 -78 -80 82 88 -90 91 93 94 96 -98 -99 103 105 -106 -108 110 -113 115 116 -117 118 -120 -121 -126 -127 129 131 -138 140 149 0
x -1 -2 3 -7 -8 -9 -16 17 -18 -19 -23 -24 -29 -31 32 36 38 39 40 42 44 45 -46 47 51 -53 54 -57 -58 -59 61 63 65 -66 -67 -68 -71 72 73 75 80 82 -83 84 -85 86 -87 -90 91 -92 -93 -95 -97 101 104 105 -106 -107 -108 -110 113 114 -118 119 -121 124 125 126 -136 -138 139 -140 -141 -143 -146 149 150 0
x 1 -3 5 -7 -8 9 -11 12 13 -16 -17 18 20 -22 24 25 28 -31 32 -33 -38 40 -41 42 49 -50 52 54 -55 56 -58 59 60 -62 63 -66 68 -69 -70 -72 -73 74 76 77 78 81 -82 83 -84 -85 88 -89 90 -91 94 -99 101 -102 -104 -106 107 -110 -113 114 115 118 -120 122 -125 -132 137 140 -141 142 143 -144 -146 147 150 0
x -1 3 -6 -11 -12 -14 -15 19 24 26 -27 29 -30 -31 -33 -34 35 37 -38 42 -44 -45 48 52 -53 54 -55 56 -60 62 64 -68 -70 -71 -72 73 -74 -77 -79 -80 81 83 85 -86 -87 89 -90 -91 -95 97 -99 -102 109 112 -113 115 117 118 -120 122 -124 126 127 -128 130 132 -134 142 -144 -145 0
x -2 -3 4 6 8 -9 -10 -13 14 15 -18 21 22 -23 24 26 30 33 36 39 -40 41 -43 -44 50 53 55 -56 -57 -60 62 -64 -65 -66 -67 -73 -74 -75 76 78 80 81 85 88 89 90 -92 94 -97 -99 -100 101 102 -105 108 110 113 114 118 125 -126 -127 -128 130 131 -133 -134 135 137 139 -142 -143 144 146 147 0
x -1 4 -5 6 7 8 10 -11 -14 15 16 18 -21 -24 -25 26 -28 -29 30 -31 -32 -34 35 -37 38 41 42 43 44 -46 47 -50 -51 52 56 -59 60 61 -63 66 67 -68 69 73 -77 -78 -79 80 -81 90 92 93 -94 -95 -99 101 -102 103 104 -106 -109 115 116 120 122 123 -126 128 129 130 -131 -132 133 135 -137 138 -141 -142 144 146 0
x 2 -4 6 7 9 -12 13 14 17 19 -20 22 -23 -24 25 26 -29 30 -31 33 35 36 37 -40 41 -45 -46 48 -49 -50 -52 -54 -55 -56 58 -60 61 62 -63 -64 66 -69 74 -76 77 79 80 82 85 86 -89 91 93 -97 98 103 -104 106 108 -110 116 119 120 123 -125 126 130 -133 134 135 137 138 141 -143 -147 148 0
x -1 2 3 -4 6 -11 -14 17 21 -22 23 -26 27 -28 -29 35 -38 -40 -42 -43 -44 45 -47 49 50 52 54 -56 58 59 -62 -66 68 -70 74 -78 79 -84 85 -87 -89 -90 91 92 93 -96 98 99 100 102 -103 -105 -107 -110 111 113 -115 -117 118 119 120 124 -125 126 127 -132 -134 135 136 -137 -140 143 -146 147 149 150 0
x 1 4 5 7 -10 -12 -13 -14 -16 17 18 19 -29 -30 -31 -34 37 38 39 -40 -41 43 45 -46 -48 -50 -51 53 54 55 -57 -64 -65 -68 70 -71 -74 -76 79 81 82 -83 85 86 -89 90 -93 95 97 100 102 -104 105 107 110 111 112 -114 115 -116 118 -119 121 122 -123 125 -126 -127 -129 -130 132 -133 138 140 -142 143 144 145 -147 148 150 0
x -1 -3 7 14 16 -17 -18 19 -21 23 -25 26 -27 -29 33 36 37 -38 41 -44 46 -49 55 -56 57 -61 -63 -64 -67 69 -71 72 -73 -74 76 82 -83 86 88 -90 92 -96 98 99 -102 109 115 -116 -117 -119 120 121 -126 -128 129 -131 -132 134 -136 138 139 141 -144 -146 148 -150 0
x 1 3 4 5 6 7 10 -11 -12 14 -16 17 -18 -20 -21 -24 27 -28 -29 34 36 40 -41 42 -44 46 -48 49 53 54 56 59 -62 63 65 -68 -69 73 76 -77 79 80 84 -86 -94 -99 -100 101 102 -103 105 -106 -107 108 109 111 112 -113 -114 115 117 118 119 -126 128 132 133 134 136 137 139 -142 143 -144 146 -148 0
x 3 7 8 -9 16 -17 20 22 24 25 -27 28 29 30 -31 -32 -35 36 39 43 -44 52 54 -55 62 65 -68 72 73 -75 76 77 78 81 83 -84 85 -88 -89 90 -91 -92 93 94 99 -100 -104 -105 107 -108 110 112 -113 -115 117 122 123 124 126 -130 133 -134 -135 136 137 -142 146 148 149 0
x -1 -2 -4 5 7 -9 -11 14 16 18 -19 21 22 -23 24 29 -30 -31 32 33 -38 -39 41 -42 -43 46 47 -48 -49 -56 59 -60 -62 -65 -66 -67 69 71 -73 77 79 -80 -81 82 -83 85 87 -88 -90 92 -93 97 100 102 103 106 107 108 109 -110 111 -112 -113 -114 115 -116 117 118 121 122 124 128 130 131 134 -136 -138 139 -141 147 -150 0
x 1 -5 12 17 18 23 25 26 -28 -29 -30 33 35 -37 -39 40 -42 43 -44 -47 48 49 52 53 -58 59 -60 62 63 64 -68 69 70 -76 -79 -80 -81 86 -88 90 91 -93 -94 -98 -100 102 -103 105 107 -110 111 114 -115 -116 -117 -119 120 -122 -123 124 -125 126 129 -130 134 -135 138 -141 -143 -144 146 147 150 0
x -1 -3 -10 -11 -14 -16 18 27 -28 -30 33 36 37 -38 41 44 -49 50 -53 55 57 61 63 -67 70 71 73 74 -77 78 -86 90 -91 -92 -93 -96 -97 98 101 103 104 105 -107 -108 109 110 116 -117 118 119 120 -121 122 125 -128 -130 -131 132 -133 136 137 -139 -140 141 142 -143 148 -150 0
x 1 -2 -3 -4 -5 -7 8 -9 -10 12 -13 -14 17 18 -21 24 -26 -33 34 -35 36 37 39 -40 -41 -42 -43 -44 -45 -48 -50 -52 57 59 62 63 65 67 -68 -69 -71 72 73 -74 -75 76 78 -80 -84 -86 -88 -92 -93 -94 95 96 -98 101 102 104 106 -108 -110 112 118 120 -122 123 -125 -126 130 -131 132 -133 135 138 142 143 146 147 148 -149 0
x 1 -3 4 9 10 11 -12 -13 -14 -15 -16 18 -20 -24 30 -31 32 34 36 -37 -38 39 40 -42 43 -44 -47 50 51 53 -55 59 60 -61 64 -66 67 68 69 -71 -72 -74 -77 -78 -81 82 -83 85 -89 90 -91 -93 -99 -100 101 102 -103 106 -107 111 -112 114 115 -116 -117 -118 119 121 125 126 -129 -130 -131 -132 -135 -138 -139 -141 -142 -144 -145 147 -148 149 150 0
x -1 -3 7 9 -10 -11 12 -14 17 -18 21 -22 24 25 -28 29 -30 32 39 40 42 46 47 -49 -50 -51 52 53 54 -55 58 60 -63 -65 66 -67 68 -70 -72 -75 -78 80 -85 -89 91 -92 -93 96 -99 101 102 -104 -106 -108 109 112 113 116 117 -118 -120 -121 122 125 -126 127 -129 -130 -132 133 -136 -138 -141 144 146 149 150 0
x -4 9 -11 -12 -15 16 -18 -22 24 25 28 30 -34 -37 -38 39 -40 -42 -43 45 -54 -56 -57 -60 -62 65 69 -70 -71 -75 -77 78 80 -83 87 -88 -91 -94 -97 98 99 100 102 -103 -104 105 -106 -108 109 111 -112 -113 118 120 -121 123 -124 -125 130 131 -135 138 -139 -142 143 -144 -145 -146 147 150 0
x -2 5 -6 -9 -12 13 14 -15 -17 20 21 -22 23 -24 -26 32 33 -35 -37 -39 40 41 43 45 46 -47 49 51 55 58 -59 62 -64 -67 71 72 73 -74 -75 -77 -78 -79 80 81 84 -85 -86 -87 -91 -93 -95 96 97 -102 -110 -111 -112 114 115 -118 -120 -125 -130 -132 -133 -135 -137 -138 -139 141 143 -144 145 -146 -147 148 -149 0
x 1 3 -6 7 8 -9 11 -12 -13 15 19 21 -24 -25 -26 -31 -33 -34 -37 -38 40 -41 -43 45 49 -52 55 -56 57 -59 60 -61 -63 -65 -66 -76 -78 79 81 83 -84 -86 87 91 -92 93 98 99 -104 -107 -110 115 116 -117 120 -121 -126 127 -128 130 132 -133 -134 136 -137 -138 -142 143 -145 -146 -147 148 -150 0
x -1 -5 -6 8 9 -12 -13 -14 16 19 -21 -22 -26 27 -28 -29 30 -31 36 -41 42 45 -48 49 50 52 -53 56 -57 61 -65 -66 67 -68 69 72 73 75 76 78 -81 85 86 88 89 -94 -95 -96 97 101 -102 103 -104 -107 -111 -114 -115 119 120 -121 122 -123 124 125 126 129 -135 -137 141 -142 143 -145 -146 149 150 0
x -4 5 -9 -11 -16 18 -23 -24 25 -29 31 -34 37 -38 -40 45 -46 -48 -49 -50 -51 -52 -53 54 -56 58 62 64 65 66 68 -70 72 -75 -77 -78 -79 -81 82 83 84 87 -90 92 -99 -101 -102 104 -105 107 -108 110 112 -113 -115 116 118 -119 -123 124 -129 130 -131 -134 135 136 -137 -139 141 -143 -144 148 0
x -1 4 -5 -6 -7 -8 12 -13 -14 -16 17 -20 22 -24 25 26 28 29 -36 -37 38 -39 -40 43 45 46 -47 -48 50 51 -53 -57 58 60 -62 63 -64 66 -68 -70 72 -74 -76 -78 79 82 83 -84 -85 86 -89 90 -91 -92 93 96 99 -100 -102 -103 -104 -107 -108 -111 -112 -114 115 -116 -117 -118 -123 125 -126 127 131 -133 -134 136 137 138 -139 -140 -142 144 -145 147 150 0
x 1 -2 -5 7 -9 10 -11 14 15 -16 17 -20 23 25 26 -29 32 33 -34 35 40 41 -42 -44 46 -47 -50 -52 53 54 58 62 63 -64 -65 -68 69 71 -72 -73 74 -80 82 -87 -88 90 91 -92 94 -95 -97 -101 102 103 -105 -106 107 -108 109 -110 -111 -112 -114 116 -117 -118 -119 -120 -121 123 124 125 128 -129 -132 -133 136 138 -144 148 0
x -2 -3 -4 -12 13 -14 19 20 -23 -30 -32 -33 34 35 -36 37 -38 42 -43 45 -47 -48 49 -50 51 53 54 56 58 -59 63 66 -68 -69 -71 -72 -74 75 77 78 79 -82 -83 -84 88 -92 -93 95 -96 97 -100 102 107 108 110 112 -113 115 -116 -119 122 123 -126 -127 -128 -129 130 131 -132 -133 -136 137 138 -141 -144 146 -149 -150 0
x 4 -5 -7 -8 10 -15 19 -22 -25 26 28 31 32 33 37 39 -42 45 52 56 -58 -59 60 61 62 64 65 70 73 -74 -76 81 82 -86 87 -89 -90 93 95 101 103 -104 106 109 112 -113 116 118 -121 -123 -124 126 -128 129 130 -132 -133 134 -137 139 140 142 143 -145 146 -147 -150 0
x -1 2 -3 -5 8 -13 14 15 16 21 -23 -25 26 27 28 -31 32 -33 -34 36 -37 -38 -40 -41 -42 45 -48 -54 56 57 -59 63 64 -65 -69 70 71 -72 73 75 -79 80 81 -84 -85 -86 -91 -93 94 96 97 -98 101 102 -104 -106 107 108 -109 -111 -115 116 -117 118 119 -121 125 126 130 132 134 136 -138 140 -141 142 -143 144 145 149 -150 0
x -5 6 -7 8 -10 11 -13 -16 -18 20 -26 27 -30 -34 35 -37 40 -41 -42 43 -44 51 -53 -54 -57 -58 63 -64 66 -67 71 77 -78 -81 86 87 -88 -91 -92 93 -94 -96 -100 101 -103 106 -114 -116 117 119 -121 -126 -128 -130 -136 137 139 -140 141 142 -143 -144 149 150 0
x 1 5 6 7 -8 -9 12 13 14 15 16 -17 19 -20 26 -29 -38 39 -43 44 45 49 -50 -51 -52 -54 56 -57 59 60 61 62 63 -64 67 -68 -69 -70 -71 -72 77 81 82 84 86 87 -88 91 -92 -94 -95 96 99 -104 106 -108 109 112 -113 -115 -116 -117 -120 122 124 -125 127 128 -129 131 132 -133 -134 -135 137 -138 -139 142 -143 -144 147 149 150 0
x 1 -2 3 -4 -6 10 -11 -13 14 16 -17 20 -23 25 27 -28 -30 -31 34 -35 -36 37 -39 41 42 43 -44 -46 -47 48 49 -51 -54 -55 57 -63 64 -66 -67 69 73 -75 76 -79 -82 83 -85 -88 -94 -97 101 -105 -107 112 -114 -116 -117 -119 -120 -121 122 123 -125 126 -132 134 -137 138 -141 142 143 146 -147 -149 0
x -2 -3 -4 5 -9 11 13 -14 -15 16 17 -21 -22 25 -27 28 29 30 -34 35 -36 -38 39 -42 -43 -45 46 -49 -55 56 57 58 -63 -65 67 -70 72 75 -87 -90 91 -96 98 99 102 103 104 106 -107 110 -111 -115 117 120 123 -127 -129 131 132 133 134 -135 -137 -139 145 146 148 -149 0
x -3 4 -5 10 -14 -15 16 -17 -18 -20 25 -27 30 -34 35 -36 37 39 40 43 45 47 -48 -49 -50 51 53 55 -56 -57 60 -62 -63 -64 65 -69 71 76 -78 79 83 -85 86 89 91 -92 -93 -100 103 -111 -115 116 -118 122 -124 128 130 -132 135 -136 137 138 140 141 144 146 -148 149 150 0
x 1 -3 7 11 -12 15 16 -17 18 -20 24 25 27 28 29 30 -33 -34 35 38 43 44 46 -47 49 -50 -51 -52 -53 -54 -55 56 57 58 61 63 -65 66 -67 69 71 73 -74 76 -77 78 81 84 -87 -88 91 -95 -96 97 98 -99 -100 -101 -102 104 -107 -112 113 -114 -115 -116 118 -119 120 -121 -122 -125 -128 -129 132 133 -136 137 138 140 -141 -142 143 -144 146 147 -148 -149 0
x -1 3 -8 -10 11 -14 16 18 19 21 -23 -24 -25 26 28 -30 -33 35 -39 40 41 -42 -43 44 -48 -49 52 53 -54 -55 -56 58 -59 -60 -61 -63 65 -68 70 -71 72 74 -75 -76 77 78 -85 86 87 -90 92 -93 -97 -98 -99 -106 108 -109 -111 -112 -113 -114 -115 116 -118 -120 122 -123 -124 -125 -126 129 -136 138 142 147 148 150 0
x 1 -2 -3 6 -7 11 -12 15 17 18 -19 22 -23 25 -26 -27 -28 -30 31 -34 -36 38 -39 -41 -42 43 -44 -45 -46 52 -54 -55 57 -58 59 62 63 66 -68 -69 -71 73 78 -79 80 -82 -84 85 -86 -87 -91 92 93 95 98 100 -102 106 107 109 111 -112 113 -114 -115 116 118 -121 123 124 -126 128 -131 133 138 -139 143 144 -146 -147 -148 150 0
x 1 2 -3 4 5 -8 -12 -13 -16 -19 21 25 29 34 35 -36 -39 -40 43 -44 45 -46 47 -50 51 52 54 -55 56 57 -61 62 -63 64 -66 -68 69 -70 71 -72 74 75 -76 -77 79 82 83 84 86 -88 -89 -100 -101 -102 108 -110 111 -112 114 115 116 117 -122 -124 125 -126 -127 128 129 -131 132 -134 -135 -136 -138 -139 -141 142 -143 -146 -147 150 0
x 1 -4 7 -8 -16 -17 23 24 25 -26 -27 30 31 34 35 38 -42 -44 -45 47 -48 49 -50 -51 -52 53 -54 -55 56 -59 60 61 -62 64 66 -67 68 71 -74 -77 79 81 83 -85 -86 -93 -95 -97 -98 -99 100 -102 -104 107 108 109 -110 -111 113 -114 116 -119 -121 -124 125 -126 -127 -128 131 -133 -135 137 139 -140 -142 -143 148 149 0
x 1 2 3 4 -5 6 7 8 -9 11 -12 -14 17 18 -19 22 24 27 -31 -34 -35 36 -37 -38 39 -40 -41 -44 45 -46 48 -51 54 57 -58 60 -62 63 65 -68 -70 74 75 76 77 -79 -82 84 -86 87 -91 95 -96 99 -101 -103 105 107 -108 -111 -114 -116 117 -118 120 121 -122 125 128 -130 -131 -138 140 -141 142 144 -145 -146 147 0
x -1 -3 -4 -5 -6 -8 10 -13 -18 -20 -21 -27 28 32 -33 36 37 -40 -42 -43 -45 -53 -60 -61 63 64 -66 -67 -68 72 73 75 -76 78 80 81 83 -84 -85 87 -88 -90 93 96 -98 -99 100 -105 -107 -108 -109 113 -114 115 -116 119 -122 -123 -125 -126 -130 -131 132 -133 -135 -138 -141 145 146 147 -148 0
x -4 6 7 8 10 -11 -12 13 14 17 -30 -31 -32 35 -36 37 -38 -39 41 42 46 47 49 51 -54 -57 -58 59 62 63 -68 69 71 74 76 77 -79 -80 81 -82 -83 -89 90 -92 -93 -94 95 96 -100 101 102 -104 -106 -107 -108 111 -113 -116 119 120 -122 129 130 131 -133 134 137 138 -140 -142 -143 -146 147 -149 -150 0
x 1 -4 6 7 -8 -10 13 15 16 19 -20 -23 24 -26 -27 29 -30 -34 35 40 43 -45 -51 52 -54 -55 -56 58 -62 63 68 70 -71 72 73 -74 76 80 -81 86 87 -90 -91 -93 -94 95 96 97 -98 -102 -106 107 -108 111 -113 114 -116 -126 -128 131 -132 -133 -134 137 -143 144 147 149 150 0
x 3 4 5 -7 -8 -9 -12 15 -17 18 -20 -22 23 -24 -25 33 37 -40 -42 -45 47 50 -52 56 -57 -58 -62 -64 65 66 67 68 -72 -78 81 -82 -83 -85 -86 87 88 -89 90 92 -96 -99 100 101 104 107 -108 109 110 113 -114 -116 -117 -120 126 -127 130 -132 -133 135 136 137 -138 -141 142 145 146 147 148 -150 0
x -1 -2 3 5 9 12 15 16 -17 -18 19 22 -27 28 29 -31 -32 35 -36 -39 -41 -43 48 -50 -53 -54 -55 56 -57 -58 59 62 66 -67 69 73 74 75 76 -77 78 81 82 84 85 -86 -89 -93 -96 -97 99 -100 102 -104 106 109 111 112 114 119 123 124 -126 130 -131 -133 135 136 139 -142 -143 -144 -145 -147 150 0
x 4 5 -6 -9 11 12 13 15 18 -22 -24 -25 26 -28 29 -30 34 35 -37 -38 -39 -40 42 -43 -44 -45 56 59 62 -66 69 75 -77 -78 -79 81 -82 86 -87 89 90 91 -92 -93 94 95 -99 -102 -103 105 108 -109 -111 -112 115 121 -123 124 125 127 -129 132 133 -134 -135 141 144 -149 150 0
x -2 3 -4 -11 12 -13 14 15 -17 18 -20 -21 22 -25 -28 -31 -32 -33 -34 -37 -40 41 -42 -44 -46 -47 -49 -50 51 -53 -55 59 -61 -62 63 -65 -68 -69 71 -73 -78 -79 80 81 -83 84 86 88 -90 94 -95 101 103 105 106 -111 112 -114 116 118 -119 -121 122 -123 -126 127 130 133 134 -136 137 139 141 -142 144 146 -147 -150 0
